\* antennalocation *\
Minimize
obj_func: 9330 x_(0,_0) + 1639 x_(0,_1) + 1784 x_(0,_2) + 1182 x_(1,_0)
 + 8494 x_(1,_1) + 8003 x_(1,_2) + 8830 x_(2,_0) + 9808 x_(2,_1)
 + 8192 x_(2,_2)
Subject To
10_0_0: q_(0,_0) - 40 x_(0,_0) <= 0
10_0_1: q_(0,_1) - 40 x_(0,_1) <= 0
10_0_2: q_(0,_2) - 40 x_(0,_2) <= 0
10_1_0: q_(1,_0) - 40 x_(1,_0) <= 0
10_1_1: q_(1,_1) - 40 x_(1,_1) <= 0
10_1_2: q_(1,_2) - 40 x_(1,_2) <= 0
10_2_0: q_(2,_0) - 40 x_(2,_0) <= 0
10_2_1: q_(2,_1) - 40 x_(2,_1) <= 0
10_2_2: q_(2,_2) - 40 x_(2,_2) <= 0
2_0_0: z_(0,_0,_0) + z_(0,_0,_1) + z_(0,_0,_2) + z_(0,_0,_3) + z_(0,_0,_4) = 1
2_0_1: z_(0,_1,_0) + z_(0,_1,_1) + z_(0,_1,_2) + z_(0,_1,_3) + z_(0,_1,_4) = 1
2_1_0: z_(1,_0,_0) + z_(1,_0,_1) + z_(1,_0,_2) + z_(1,_0,_3) + z_(1,_0,_4) = 1
2_1_1: z_(1,_1,_0) + z_(1,_1,_1) + z_(1,_1,_2) + z_(1,_1,_3) + z_(1,_1,_4) = 1
3_0_0: - x_(0,_0) - x_(0,_1) - x_(1,_0) - x_(1,_1) - 4 z_(0,_0,_0)
 - 3 z_(0,_0,_1) - 2 z_(0,_0,_2) - z_(0,_0,_3) = -4
3_0_1: - x_(0,_1) - x_(0,_2) - x_(1,_1) - x_(1,_2) - 4 z_(0,_1,_0)
 - 3 z_(0,_1,_1) - 2 z_(0,_1,_2) - z_(0,_1,_3) = -4
3_1_0: - x_(1,_0) - x_(1,_1) - x_(2,_0) - x_(2,_1) - 4 z_(1,_0,_0)
 - 3 z_(1,_0,_1) - 2 z_(1,_0,_2) - z_(1,_0,_3) = -4
3_1_1: - x_(1,_1) - x_(1,_2) - x_(2,_1) - x_(2,_2) - 4 z_(1,_1,_0)
 - 3 z_(1,_1,_1) - 2 z_(1,_1,_2) - z_(1,_1,_3) = -4
4_0_0_0: - 10 x_(0,_0) + 4000 z_(0,_0,_0) <= 4000
4_0_0_1: q_SE_(0,_0) - 10 x_(0,_0) + 4000 z_(0,_0,_1) <= 4000
4_0_0_2: 2 q_SE_(0,_0) - 10 x_(0,_0) + 4000 z_(0,_0,_2) <= 4000
4_0_0_3: 3 q_SE_(0,_0) - 10 x_(0,_0) + 4000 z_(0,_0,_3) <= 4000
4_0_0_4: 4 q_SE_(0,_0) - 10 x_(0,_0) + 4000 z_(0,_0,_4) <= 4000
4_0_1_0: - 20 x_(0,_1) + 4000 z_(0,_1,_0) <= 4000
4_0_1_1: q_SE_(0,_1) - 20 x_(0,_1) + 4000 z_(0,_1,_1) <= 4000
4_0_1_2: 2 q_SE_(0,_1) - 20 x_(0,_1) + 4000 z_(0,_1,_2) <= 4000
4_0_1_3: 3 q_SE_(0,_1) - 20 x_(0,_1) + 4000 z_(0,_1,_3) <= 4000
4_0_1_4: 4 q_SE_(0,_1) - 20 x_(0,_1) + 4000 z_(0,_1,_4) <= 4000
4_1_0_0: - 13 x_(1,_0) + 4000 z_(1,_0,_0) <= 4000
4_1_0_1: q_SE_(1,_0) - 13 x_(1,_0) + 4000 z_(1,_0,_1) <= 4000
4_1_0_2: 2 q_SE_(1,_0) - 13 x_(1,_0) + 4000 z_(1,_0,_2) <= 4000
4_1_0_3: 3 q_SE_(1,_0) - 13 x_(1,_0) + 4000 z_(1,_0,_3) <= 4000
4_1_0_4: 4 q_SE_(1,_0) - 13 x_(1,_0) + 4000 z_(1,_0,_4) <= 4000
4_1_1_0: - 14 x_(1,_1) + 4000 z_(1,_1,_0) <= 4000
4_1_1_1: q_SE_(1,_1) - 14 x_(1,_1) + 4000 z_(1,_1,_1) <= 4000
4_1_1_2: 2 q_SE_(1,_1) - 14 x_(1,_1) + 4000 z_(1,_1,_2) <= 4000
4_1_1_3: 3 q_SE_(1,_1) - 14 x_(1,_1) + 4000 z_(1,_1,_3) <= 4000
4_1_1_4: 4 q_SE_(1,_1) - 14 x_(1,_1) + 4000 z_(1,_1,_4) <= 4000
5_0_0_0: - 10 x_(0,_1) + 4000 z_(0,_0,_0) <= 4000
5_0_0_1: q_SW_(0,_1) - 10 x_(0,_1) + 4000 z_(0,_0,_1) <= 4000
5_0_0_2: 2 q_SW_(0,_1) - 10 x_(0,_1) + 4000 z_(0,_0,_2) <= 4000
5_0_0_3: 3 q_SW_(0,_1) - 10 x_(0,_1) + 4000 z_(0,_0,_3) <= 4000
5_0_0_4: 4 q_SW_(0,_1) - 10 x_(0,_1) + 4000 z_(0,_0,_4) <= 4000
5_0_1_0: - 20 x_(0,_2) + 4000 z_(0,_1,_0) <= 4000
5_0_1_1: q_SW_(0,_2) - 20 x_(0,_2) + 4000 z_(0,_1,_1) <= 4000
5_0_1_2: 2 q_SW_(0,_2) - 20 x_(0,_2) + 4000 z_(0,_1,_2) <= 4000
5_0_1_3: 3 q_SW_(0,_2) - 20 x_(0,_2) + 4000 z_(0,_1,_3) <= 4000
5_0_1_4: 4 q_SW_(0,_2) - 20 x_(0,_2) + 4000 z_(0,_1,_4) <= 4000
5_1_0_0: - 13 x_(1,_1) + 4000 z_(1,_0,_0) <= 4000
5_1_0_1: q_SW_(1,_1) - 13 x_(1,_1) + 4000 z_(1,_0,_1) <= 4000
5_1_0_2: 2 q_SW_(1,_1) - 13 x_(1,_1) + 4000 z_(1,_0,_2) <= 4000
5_1_0_3: 3 q_SW_(1,_1) - 13 x_(1,_1) + 4000 z_(1,_0,_3) <= 4000
5_1_0_4: 4 q_SW_(1,_1) - 13 x_(1,_1) + 4000 z_(1,_0,_4) <= 4000
5_1_1_0: - 14 x_(1,_2) + 4000 z_(1,_1,_0) <= 4000
5_1_1_1: q_SW_(1,_2) - 14 x_(1,_2) + 4000 z_(1,_1,_1) <= 4000
5_1_1_2: 2 q_SW_(1,_2) - 14 x_(1,_2) + 4000 z_(1,_1,_2) <= 4000
5_1_1_3: 3 q_SW_(1,_2) - 14 x_(1,_2) + 4000 z_(1,_1,_3) <= 4000
5_1_1_4: 4 q_SW_(1,_2) - 14 x_(1,_2) + 4000 z_(1,_1,_4) <= 4000
6_0_0_0: - 10 x_(1,_0) + 4000 z_(0,_0,_0) <= 4000
6_0_0_1: q_NE_(1,_0) - 10 x_(1,_0) + 4000 z_(0,_0,_1) <= 4000
6_0_0_2: 2 q_NE_(1,_0) - 10 x_(1,_0) + 4000 z_(0,_0,_2) <= 4000
6_0_0_3: 3 q_NE_(1,_0) - 10 x_(1,_0) + 4000 z_(0,_0,_3) <= 4000
6_0_0_4: 4 q_NE_(1,_0) - 10 x_(1,_0) + 4000 z_(0,_0,_4) <= 4000
6_0_1_0: - 20 x_(1,_1) + 4000 z_(0,_1,_0) <= 4000
6_0_1_1: q_NE_(1,_1) - 20 x_(1,_1) + 4000 z_(0,_1,_1) <= 4000
6_0_1_2: 2 q_NE_(1,_1) - 20 x_(1,_1) + 4000 z_(0,_1,_2) <= 4000
6_0_1_3: 3 q_NE_(1,_1) - 20 x_(1,_1) + 4000 z_(0,_1,_3) <= 4000
6_0_1_4: 4 q_NE_(1,_1) - 20 x_(1,_1) + 4000 z_(0,_1,_4) <= 4000
6_1_0_0: - 13 x_(2,_0) + 4000 z_(1,_0,_0) <= 4000
6_1_0_1: q_NE_(2,_0) - 13 x_(2,_0) + 4000 z_(1,_0,_1) <= 4000
6_1_0_2: 2 q_NE_(2,_0) - 13 x_(2,_0) + 4000 z_(1,_0,_2) <= 4000
6_1_0_3: 3 q_NE_(2,_0) - 13 x_(2,_0) + 4000 z_(1,_0,_3) <= 4000
6_1_0_4: 4 q_NE_(2,_0) - 13 x_(2,_0) + 4000 z_(1,_0,_4) <= 4000
6_1_1_0: - 14 x_(2,_1) + 4000 z_(1,_1,_0) <= 4000
6_1_1_1: q_NE_(2,_1) - 14 x_(2,_1) + 4000 z_(1,_1,_1) <= 4000
6_1_1_2: 2 q_NE_(2,_1) - 14 x_(2,_1) + 4000 z_(1,_1,_2) <= 4000
6_1_1_3: 3 q_NE_(2,_1) - 14 x_(2,_1) + 4000 z_(1,_1,_3) <= 4000
6_1_1_4: 4 q_NE_(2,_1) - 14 x_(2,_1) + 4000 z_(1,_1,_4) <= 4000
7_0_0_0: - 10 x_(1,_1) + 4000 z_(0,_0,_0) <= 4000
7_0_0_1: q_NW_(1,_1) - 10 x_(1,_1) + 4000 z_(0,_0,_1) <= 4000
7_0_0_2: 2 q_NW_(1,_1) - 10 x_(1,_1) + 4000 z_(0,_0,_2) <= 4000
7_0_0_3: 3 q_NW_(1,_1) - 10 x_(1,_1) + 4000 z_(0,_0,_3) <= 4000
7_0_0_4: 4 q_NW_(1,_1) - 10 x_(1,_1) + 4000 z_(0,_0,_4) <= 4000
7_0_1_0: - 20 x_(1,_2) + 4000 z_(0,_1,_0) <= 4000
7_0_1_1: q_NW_(1,_2) - 20 x_(1,_2) + 4000 z_(0,_1,_1) <= 4000
7_0_1_2: 2 q_NW_(1,_2) - 20 x_(1,_2) + 4000 z_(0,_1,_2) <= 4000
7_0_1_3: 3 q_NW_(1,_2) - 20 x_(1,_2) + 4000 z_(0,_1,_3) <= 4000
7_0_1_4: 4 q_NW_(1,_2) - 20 x_(1,_2) + 4000 z_(0,_1,_4) <= 4000
7_1_0_0: - 13 x_(2,_1) + 4000 z_(1,_0,_0) <= 4000
7_1_0_1: q_NW_(2,_1) - 13 x_(2,_1) + 4000 z_(1,_0,_1) <= 4000
7_1_0_2: 2 q_NW_(2,_1) - 13 x_(2,_1) + 4000 z_(1,_0,_2) <= 4000
7_1_0_3: 3 q_NW_(2,_1) - 13 x_(2,_1) + 4000 z_(1,_0,_3) <= 4000
7_1_0_4: 4 q_NW_(2,_1) - 13 x_(2,_1) + 4000 z_(1,_0,_4) <= 4000
7_1_1_0: - 14 x_(2,_2) + 4000 z_(1,_1,_0) <= 4000
7_1_1_1: q_NW_(2,_2) - 14 x_(2,_2) + 4000 z_(1,_1,_1) <= 4000
7_1_1_2: 2 q_NW_(2,_2) - 14 x_(2,_2) + 4000 z_(1,_1,_2) <= 4000
7_1_1_3: 3 q_NW_(2,_2) - 14 x_(2,_2) + 4000 z_(1,_1,_3) <= 4000
7_1_1_4: 4 q_NW_(2,_2) - 14 x_(2,_2) + 4000 z_(1,_1,_4) <= 4000
8_0_0: q_NE_(1,_0) + q_NW_(1,_1) + q_SE_(0,_0) + q_SW_(0,_1) = 10
8_0_1: q_NE_(1,_1) + q_NW_(1,_2) + q_SE_(0,_1) + q_SW_(0,_2) = 20
8_1_0: q_NE_(2,_0) + q_NW_(2,_1) + q_SE_(1,_0) + q_SW_(1,_1) = 13
8_1_1: q_NE_(2,_1) + q_NW_(2,_2) + q_SE_(1,_1) + q_SW_(1,_2) = 14
9_0_0: q_(0,_0) - q_NE_(0,_0) - q_NW_(0,_0) - q_SE_(0,_0) - q_SW_(0,_0) = 0
9_0_1: q_(0,_1) - q_NE_(0,_1) - q_NW_(0,_1) - q_SE_(0,_1) - q_SW_(0,_1) = 0
9_0_2: q_(0,_2) - q_NE_(0,_2) - q_NW_(0,_2) - q_SE_(0,_2) - q_SW_(0,_2) = 0
9_1_0: q_(1,_0) - q_NE_(1,_0) - q_NW_(1,_0) - q_SE_(1,_0) - q_SW_(1,_0) = 0
9_1_1: q_(1,_1) - q_NE_(1,_1) - q_NW_(1,_1) - q_SE_(1,_1) - q_SW_(1,_1) = 0
9_1_2: q_(1,_2) - q_NE_(1,_2) - q_NW_(1,_2) - q_SE_(1,_2) - q_SW_(1,_2) = 0
9_2_0: q_(2,_0) - q_NE_(2,_0) - q_NW_(2,_0) - q_SE_(2,_0) - q_SW_(2,_0) = 0
9_2_1: q_(2,_1) - q_NE_(2,_1) - q_NW_(2,_1) - q_SE_(2,_1) - q_SW_(2,_1) = 0
9_2_2: q_(2,_2) - q_NE_(2,_2) - q_NW_(2,_2) - q_SE_(2,_2) - q_SW_(2,_2) = 0
Binaries
x_(0,_0)
x_(0,_1)
x_(0,_2)
x_(1,_0)
x_(1,_1)
x_(1,_2)
x_(2,_0)
x_(2,_1)
x_(2,_2)
z_(0,_0,_0)
z_(0,_0,_1)
z_(0,_0,_2)
z_(0,_0,_3)
z_(0,_0,_4)
z_(0,_1,_0)
z_(0,_1,_1)
z_(0,_1,_2)
z_(0,_1,_3)
z_(0,_1,_4)
z_(1,_0,_0)
z_(1,_0,_1)
z_(1,_0,_2)
z_(1,_0,_3)
z_(1,_0,_4)
z_(1,_1,_0)
z_(1,_1,_1)
z_(1,_1,_2)
z_(1,_1,_3)
z_(1,_1,_4)
End
